
-97.1
-62.6
-45.4
-36.0
-27.1
-18.3
-18.2
-17.9
-17.8
-17.5
-17.4
-17.3
-17.1
-16.7
-16.7
-16.7
-16.7
-16.6
-16.4
-16.4
-16.4
-16.4
-16.4
-16.4
-16.4
-16.4
-16.4
-16.4
-16.4
-16.4
-16.4
-16.4
-16.4
-87.35
-48.0
-30.3
-17.1
-16.7
-16.35
-16.25
-16.2
-16.15
-16.1
-16.05
-16.05
-16.0
-15.7
-15.7
-15.6
-15.6
-15.6
-15.55
-15.55
-15.55
-15.55
-15.55
-15.55
-15.55
-83.6
-70.15
-44.05
-26.25
-21.7
-21.65
-17.3
-17.1
-17.0
-16.95
-16.95
-16.85
-16.75
-16.7
-16.65
-16.65
-16.6
-16.55
-16.55
-16.45
-16.45
-16.45
-16.35
-16.35
-16.35
-16.35
-16.35
-16.35
-16.35
-16.35
-16.35
-16.35
-16.35